1
1000
198
250 13
251 7
252 9
253 18
254 12
255 6
256 8
257 5
258 4
259 5
260 3
261 5
262 4
263 8
264 10
265 3
266 4
267 4
268 6
269 2
270 8
271 2
272 4
273 3
274 2
275 7
276 4
277 4
278 4
279 3
280 5
281 3
282 1
283 3
284 1
285 2
286 6
287 2
288 1
289 2
290 4
291 4
292 1
293 4
294 4
296 6
297 1
298 3
299 2
300 1
301 5
302 2
304 1
305 3
306 1
307 1
308 1
309 6
310 1
311 1
312 3
313 1
314 1
316 2
319 3
320 1
321 4
322 3
323 3
324 1
325 1
326 2
327 1
329 2
330 3
331 1
332 1
333 1
334 2
335 1
336 2
337 3
338 1
339 1
340 2
342 1
343 1
345 1
347 2
348 1
350 1
351 1
352 4
354 1
355 2
356 2
357 2
358 2
359 3
360 1
361 7
362 2
363 2
364 4
365 6
367 3
368 2
369 1
371 1
372 3
373 2
374 2
375 2
379 5
380 1
381 2
382 3
383 4
385 2
387 2
388 1
391 1
392 1
393 1
394 1
395 2
396 1
397 1
398 2
400 1
401 2
402 1
403 2
404 1
405 2
407 1
412 1
413 2
414 1
415 2
416 1
420 2
421 6
423 1
424 1
425 1
426 1
428 1
429 2
431 1
433 1
435 1
436 1
437 1
440 1
441 1
442 3
443 1
446 1
447 2
449 1
450 2
451 1
453 4
454 2
456 3
458 1
459 1
460 1
461 2
462 3
463 1
465 1
467 1
468 1
470 2
471 1
473 1
475 3
477 1
478 2
479 2
480 2
481 2
483 2
484 1
485 1
486 2
487 1
489 1
490 1
491 2
493 1
495 2
496 2
497 3
498 1
499 1
